(set-logic QF_BV)

(declare-const __ESBMC_ptr_obj_start_0 (_ BitVec 64))

(declare-const __ESBMC_ptr_obj_end_0 (_ BitVec 64))

(declare-const __ESBMC_ptr_obj_start_1 (_ BitVec 64))

(declare-const __ESBMC_ptr_obj_end_1 (_ BitVec 64))

(declare-const |smt_conv::__ESBMC_ptr_addr_range_0..start0| (_ BitVec 64))

(declare-const |smt_conv::__ESBMC_ptr_addr_range_0..end0| (_ BitVec 64))

(declare-const |smt_conv::__ESBMC_ptr_addr_range_1..start0| (_ BitVec 64))

(declare-const |smt_conv::__ESBMC_ptr_addr_range_1..end0| (_ BitVec 64))

(declare-const |smt_conv::smt_conv::collate_array_vals::3..start0| (_ BitVec 64))

(declare-const |smt_conv::smt_conv::collate_array_vals::3..end0| (_ BitVec 64))

(declare-const |smt_conv::smt_conv::collate_array_vals::4..start0| (_ BitVec 64))

(declare-const |smt_conv::smt_conv::collate_array_vals::4..end0| (_ BitVec 64))

(declare-const |smt_conv::smt_conv::collate_array_vals::7..start0| (_ BitVec 64))

(declare-const |smt_conv::smt_conv::collate_array_vals::7..end0| (_ BitVec 64))

(declare-const |c:up.i@977@F@main@n?1!0&0#1| (_ BitVec 32))

(declare-const |nondet$symex::nondet72| (_ BitVec 32))

(declare-const |goto_symex::guard?0!0&0#1| (_ BitVec 1))

(declare-const |goto_symex::guard?0!0&0#2| (_ BitVec 1))

(declare-const |goto_symex::guard?0!0&0#3| (_ BitVec 1))

(declare-const |goto_symex::guard?0!0&0#4| (_ BitVec 1))

(declare-const |goto_symex::guard?0!0&0#5| (_ BitVec 1))

(declare-const |goto_symex::guard?0!0&0#6| (_ BitVec 1))

(declare-const |goto_symex::guard?0!0&0#7| (_ BitVec 1))

(declare-const |goto_symex::guard?0!0&0#8| (_ BitVec 1))

(declare-const |goto_symex::guard?0!0&0#9| (_ BitVec 1))

(declare-const |goto_symex::guard?0!0&0#10| (_ BitVec 1))

(declare-const |goto_symex::guard?0!0&0#11| (_ BitVec 1))

(declare-const |goto_symex::guard?0!0&0#12| (_ BitVec 1))

(declare-const |c:up.i@999@F@main@k?1!0&0#15| (_ BitVec 32))

(declare-const |c:up.i@999@F@main@k?1!0&0#16| (_ BitVec 32))

(declare-const |c:up.i@999@F@main@k?1!0&0#17| (_ BitVec 32))

(declare-const |c:up.i@999@F@main@k?1!0&0#18| (_ BitVec 32))

(declare-const |c:up.i@999@F@main@k?1!0&0#19| (_ BitVec 32))

(declare-const |c:up.i@999@F@main@k?1!0&0#20| (_ BitVec 32))

(declare-const |c:up.i@999@F@main@k?1!0&0#21| (_ BitVec 32))

(declare-const |c:up.i@999@F@main@k?1!0&0#22| (_ BitVec 32))

(declare-const |c:up.i@999@F@main@k?1!0&0#23| (_ BitVec 32))

(declare-const |c:up.i@999@F@main@k?1!0&0#24| (_ BitVec 32))

(declare-const |c:up.i@999@F@main@k?1!0&0#25| (_ BitVec 32))

(declare-const |goto_symex::guard?0!0&0#13| (_ BitVec 1))

(declare-const |c:up.i@852@F@__VERIFIER_assert@cond?1!0&0#1| (_ BitVec 32))

(declare-const |goto_symex::guard?0!0&0#14| (_ BitVec 1))

(declare-const |execution_statet::guard_exec?0!0| (_ BitVec 1))

(declare-const |c:up.i@999@F@main@k?1!0&0#26| (_ BitVec 32))

(declare-const |goto_symex::guard?0!0&0#15| (_ BitVec 1))

(declare-const |c:up.i@852@F@__VERIFIER_assert@cond?2!0&0#1| (_ BitVec 32))

(declare-const |goto_symex::guard?0!0&0#16| (_ BitVec 1))

(declare-const |c:up.i@999@F@main@k?1!0&0#27| (_ BitVec 32))

(declare-const |goto_symex::guard?0!0&0#17| (_ BitVec 1))

(declare-const |c:up.i@852@F@__VERIFIER_assert@cond?3!0&0#1| (_ BitVec 32))

(declare-const |goto_symex::guard?0!0&0#18| (_ BitVec 1))

(declare-const |c:up.i@999@F@main@k?1!0&0#28| (_ BitVec 32))

(declare-const |goto_symex::guard?0!0&0#19| (_ BitVec 1))

(declare-const |c:up.i@852@F@__VERIFIER_assert@cond?4!0&0#1| (_ BitVec 32))

(declare-const |goto_symex::guard?0!0&0#20| (_ BitVec 1))

(declare-const |c:up.i@999@F@main@k?1!0&0#29| (_ BitVec 32))

(declare-const |goto_symex::guard?0!0&0#21| (_ BitVec 1))

(declare-const |c:up.i@852@F@__VERIFIER_assert@cond?5!0&0#1| (_ BitVec 32))

(declare-const |goto_symex::guard?0!0&0#22| (_ BitVec 1))

(declare-const |c:up.i@999@F@main@k?1!0&0#30| (_ BitVec 32))

(declare-const |goto_symex::guard?0!0&0#23| (_ BitVec 1))

(declare-const |c:up.i@852@F@__VERIFIER_assert@cond?6!0&0#1| (_ BitVec 32))

(declare-const |goto_symex::guard?0!0&0#24| (_ BitVec 1))

(declare-const |c:up.i@999@F@main@k?1!0&0#31| (_ BitVec 32))

(declare-const |goto_symex::guard?0!0&0#25| (_ BitVec 1))

(declare-const |c:up.i@852@F@__VERIFIER_assert@cond?7!0&0#1| (_ BitVec 32))

(declare-const |goto_symex::guard?0!0&0#26| (_ BitVec 1))

(declare-const |c:up.i@999@F@main@k?1!0&0#32| (_ BitVec 32))

(declare-const |goto_symex::guard?0!0&0#27| (_ BitVec 1))

(declare-const |c:up.i@852@F@__VERIFIER_assert@cond?8!0&0#1| (_ BitVec 32))

(declare-const |goto_symex::guard?0!0&0#28| (_ BitVec 1))

(declare-const |c:up.i@999@F@main@k?1!0&0#33| (_ BitVec 32))

(declare-const |goto_symex::guard?0!0&0#29| (_ BitVec 1))

(declare-const |c:up.i@852@F@__VERIFIER_assert@cond?9!0&0#1| (_ BitVec 32))

(declare-const |goto_symex::guard?0!0&0#30| (_ BitVec 1))

(declare-const |c:up.i@999@F@main@k?1!0&0#34| (_ BitVec 32))

(declare-const |goto_symex::guard?0!0&0#31| (_ BitVec 1))

(declare-const |c:up.i@852@F@__VERIFIER_assert@cond?10!0&0#1| (_ BitVec 32))

(declare-const |goto_symex::guard?0!0&0#32| (_ BitVec 1))

(declare-const |c:up.i@999@F@main@k?1!0&0#35| (_ BitVec 32))

(declare-const |goto_symex::guard?0!0&0#33| (_ BitVec 1))

(declare-const |c:up.i@852@F@__VERIFIER_assert@cond?11!0&0#1| (_ BitVec 32))

(declare-const |goto_symex::guard?0!0&0#34| (_ BitVec 1))

(declare-const |c:up.i@999@F@main@k?1!0&0#36| (_ BitVec 32))

(declare-const |goto_symex::guard?0!0&0#35| (_ BitVec 1))

(declare-const |c:up.i@852@F@__VERIFIER_assert@cond?12!0&0#1| (_ BitVec 32))

(declare-const |goto_symex::guard?0!0&0#36| (_ BitVec 1))

(define-fun $e1 () Bool 

 (bvslt #b00000000000000000000000000000000 |c:up.i@977@F@main@n?1!0&0#1|))

(define-fun $e2 () Bool 

 (bvslt #b00000000000000000000000000000001 |c:up.i@977@F@main@n?1!0&0#1|))

(define-fun $e3 () Bool 

 (bvslt #b00000000000000000000000000000010 |c:up.i@977@F@main@n?1!0&0#1|))

(define-fun $e4 () Bool 

 (bvslt #b00000000000000000000000000000011 |c:up.i@977@F@main@n?1!0&0#1|))

(define-fun $e5 () Bool 

 (bvslt #b00000000000000000000000000000100 |c:up.i@977@F@main@n?1!0&0#1|))

(define-fun $e6 () Bool 

 (bvslt #b00000000000000000000000000000101 |c:up.i@977@F@main@n?1!0&0#1|))

(define-fun $e7 () Bool 

 (bvslt #b00000000000000000000000000000110 |c:up.i@977@F@main@n?1!0&0#1|))

(define-fun $e8 () Bool 

 (bvslt #b00000000000000000000000000000111 |c:up.i@977@F@main@n?1!0&0#1|))

(define-fun $e9 () Bool 

 (bvslt #b00000000000000000000000000001000 |c:up.i@977@F@main@n?1!0&0#1|))

(define-fun $e10 () Bool 

 (bvslt #b00000000000000000000000000001001 |c:up.i@977@F@main@n?1!0&0#1|))

(define-fun $e11 () Bool 

 (bvslt #b00000000000000000000000000001010 |c:up.i@977@F@main@n?1!0&0#1|))

(define-fun $e12 () Bool 

 (bvslt #b00000000000000000000000000001011 |c:up.i@977@F@main@n?1!0&0#1|))

(define-fun $e13 () (_ BitVec 1) 

 (bvand |goto_symex::guard?0!0&0#12| 

  (bvand |goto_symex::guard?0!0&0#11| 

   (bvand |goto_symex::guard?0!0&0#10| 

    (bvand |goto_symex::guard?0!0&0#9| 

     (bvand |goto_symex::guard?0!0&0#8| 

      (bvand |goto_symex::guard?0!0&0#7| 

       (bvand |goto_symex::guard?0!0&0#6| 

        (bvand |goto_symex::guard?0!0&0#5| 

         (bvand |goto_symex::guard?0!0&0#4| 

          (bvand |goto_symex::guard?0!0&0#3| 

           (bvand |goto_symex::guard?0!0&0#1| |goto_symex::guard?0!0&0#2|))))))))))))

(define-fun $e14 () (_ BitVec 1) 

 (bvand |goto_symex::guard?0!0&0#13| 

  (bvnot 

   (bvand |goto_symex::guard?0!0&0#1| 

    (bvand |goto_symex::guard?0!0&0#2| 

     (bvand |goto_symex::guard?0!0&0#3| 

      (bvand |goto_symex::guard?0!0&0#4| 

       (bvand |goto_symex::guard?0!0&0#5| 

        (bvand |goto_symex::guard?0!0&0#6| 

         (bvand |goto_symex::guard?0!0&0#7| 

          (bvand |goto_symex::guard?0!0&0#8| 

           (bvand |goto_symex::guard?0!0&0#9| 

            (bvand |goto_symex::guard?0!0&0#10| 

             (bvand |goto_symex::guard?0!0&0#11| |goto_symex::guard?0!0&0#12|))))))))))))))

(define-fun $e15 () (_ BitVec 1) 

 (bvand $e14 |goto_symex::guard?0!0&0#14|))

(define-fun $e16 () (_ BitVec 1) 

 (bvand 

  (bvnot $e13) 

  (bvnot $e15)))

(define-fun $e17 () (_ BitVec 1) 

 (bvand $e14 |goto_symex::guard?0!0&0#15|))

(define-fun $e18 () (_ BitVec 1) 

 (bvand $e17 |goto_symex::guard?0!0&0#16|))

(define-fun $e19 () (_ BitVec 1) 

 (bvand $e16 

  (bvnot $e18)))

(define-fun $e20 () (_ BitVec 1) 

 (bvand $e17 |goto_symex::guard?0!0&0#17|))

(define-fun $e21 () (_ BitVec 1) 

 (bvand $e20 |goto_symex::guard?0!0&0#18|))

(define-fun $e22 () (_ BitVec 1) 

 (bvand $e19 

  (bvnot $e21)))

(define-fun $e23 () (_ BitVec 1) 

 (bvand $e20 |goto_symex::guard?0!0&0#19|))

(define-fun $e24 () (_ BitVec 1) 

 (bvand $e23 |goto_symex::guard?0!0&0#20|))

(define-fun $e25 () (_ BitVec 1) 

 (bvand $e22 

  (bvnot $e24)))

(define-fun $e26 () (_ BitVec 1) 

 (bvand $e23 |goto_symex::guard?0!0&0#21|))

(define-fun $e27 () (_ BitVec 1) 

 (bvand $e26 |goto_symex::guard?0!0&0#22|))

(define-fun $e28 () (_ BitVec 1) 

 (bvand $e25 

  (bvnot $e27)))

(define-fun $e29 () (_ BitVec 1) 

 (bvand $e26 |goto_symex::guard?0!0&0#23|))

(define-fun $e30 () (_ BitVec 1) 

 (bvand $e29 |goto_symex::guard?0!0&0#24|))

(define-fun $e31 () (_ BitVec 1) 

 (bvand $e28 

  (bvnot $e30)))

(define-fun $e32 () (_ BitVec 1) 

 (bvand $e29 |goto_symex::guard?0!0&0#25|))

(define-fun $e33 () (_ BitVec 1) 

 (bvand $e32 |goto_symex::guard?0!0&0#26|))

(define-fun $e34 () (_ BitVec 1) 

 (bvand $e31 

  (bvnot $e33)))

(define-fun $e35 () (_ BitVec 1) 

 (bvand $e32 |goto_symex::guard?0!0&0#27|))

(define-fun $e36 () (_ BitVec 1) 

 (bvand $e35 |goto_symex::guard?0!0&0#28|))

(define-fun $e37 () (_ BitVec 1) 

 (bvand $e34 

  (bvnot $e36)))

(define-fun $e38 () (_ BitVec 1) 

 (bvand $e35 |goto_symex::guard?0!0&0#29|))

(define-fun $e39 () (_ BitVec 1) 

 (bvand $e38 |goto_symex::guard?0!0&0#30|))

(define-fun $e40 () (_ BitVec 1) 

 (bvand $e37 

  (bvnot $e39)))

(define-fun $e41 () (_ BitVec 1) 

 (bvand $e38 |goto_symex::guard?0!0&0#31|))

(define-fun $e42 () (_ BitVec 1) 

 (bvand $e41 |goto_symex::guard?0!0&0#32|))

(define-fun $e43 () (_ BitVec 1) 

 (bvand $e40 

  (bvnot $e42)))

(define-fun $e44 () (_ BitVec 1) 

 (bvand $e41 |goto_symex::guard?0!0&0#33|))

(define-fun $e45 () (_ BitVec 1) 

 (bvand $e44 |goto_symex::guard?0!0&0#34|))

(assert 

 (= __ESBMC_ptr_obj_start_0 #b0000000000000000000000000000000000000000000000000000000000000000))

(assert 

 (= #b0000000000000000000000000000000000000000000000000000000000000000 __ESBMC_ptr_obj_end_0))

(assert 

 (= __ESBMC_ptr_obj_start_1 #b0000000000000000000000000000000000000000000000000000000000000001))

(assert 

 (= #b1111111111111111111111111111111111111111111111111111111111111111 __ESBMC_ptr_obj_end_1))

(assert 

 (= __ESBMC_ptr_obj_end_0 |smt_conv::__ESBMC_ptr_addr_range_0..end0|))

(assert 

 (= __ESBMC_ptr_obj_start_0 |smt_conv::__ESBMC_ptr_addr_range_0..start0|))

(assert 

 (= __ESBMC_ptr_obj_end_1 |smt_conv::__ESBMC_ptr_addr_range_1..end0|))

(assert 

 (= __ESBMC_ptr_obj_start_1 |smt_conv::__ESBMC_ptr_addr_range_1..start0|))

(assert 

 (= |smt_conv::smt_conv::collate_array_vals::3..end0| |smt_conv::smt_conv::collate_array_vals::4..end0|))

(assert 

 (= |smt_conv::smt_conv::collate_array_vals::3..start0| |smt_conv::smt_conv::collate_array_vals::4..start0|))

(assert 

 (= __ESBMC_ptr_obj_end_0 |smt_conv::smt_conv::collate_array_vals::7..end0|))

(assert 

 (= __ESBMC_ptr_obj_start_0 |smt_conv::smt_conv::collate_array_vals::7..start0|))

(assert 

 (= |c:up.i@977@F@main@n?1!0&0#1| |nondet$symex::nondet72|))

(assert 

 (= |goto_symex::guard?0!0&0#1| 

  (ite $e1 #b1 #b0)))

(assert 

 (= |goto_symex::guard?0!0&0#2| 

  (ite $e2 #b1 #b0)))

(assert 

 (= |goto_symex::guard?0!0&0#3| 

  (ite $e3 #b1 #b0)))

(assert 

 (= |goto_symex::guard?0!0&0#4| 

  (ite $e4 #b1 #b0)))

(assert 

 (= |goto_symex::guard?0!0&0#5| 

  (ite $e5 #b1 #b0)))

(assert 

 (= |goto_symex::guard?0!0&0#6| 

  (ite $e6 #b1 #b0)))

(assert 

 (= |goto_symex::guard?0!0&0#7| 

  (ite $e7 #b1 #b0)))

(assert 

 (= |goto_symex::guard?0!0&0#8| 

  (ite $e8 #b1 #b0)))

(assert 

 (= |goto_symex::guard?0!0&0#9| 

  (ite $e9 #b1 #b0)))

(assert 

 (= |goto_symex::guard?0!0&0#10| 

  (ite $e10 #b1 #b0)))

(assert 

 (= |goto_symex::guard?0!0&0#11| 

  (ite $e11 #b1 #b0)))

(assert 

 (= |goto_symex::guard?0!0&0#12| 

  (ite $e12 #b1 #b0)))

(assert 

 (= |c:up.i@999@F@main@k?1!0&0#15| 

  (ite 

   (= #b1 |goto_symex::guard?0!0&0#11|) #b00000000000000000000000000001011 #b00000000000000000000000000001010)))

(assert 

 (= |c:up.i@999@F@main@k?1!0&0#16| 

  (ite 

   (= #b1 |goto_symex::guard?0!0&0#10|) |c:up.i@999@F@main@k?1!0&0#15| #b00000000000000000000000000001001)))

(assert 

 (= |c:up.i@999@F@main@k?1!0&0#17| 

  (ite 

   (= #b1 |goto_symex::guard?0!0&0#9|) |c:up.i@999@F@main@k?1!0&0#16| #b00000000000000000000000000001000)))

(assert 

 (= |c:up.i@999@F@main@k?1!0&0#18| 

  (ite 

   (= #b1 |goto_symex::guard?0!0&0#8|) |c:up.i@999@F@main@k?1!0&0#17| #b00000000000000000000000000000111)))

(assert 

 (= |c:up.i@999@F@main@k?1!0&0#19| 

  (ite 

   (= #b1 |goto_symex::guard?0!0&0#7|) |c:up.i@999@F@main@k?1!0&0#18| #b00000000000000000000000000000110)))

(assert 

 (= |c:up.i@999@F@main@k?1!0&0#20| 

  (ite 

   (= #b1 |goto_symex::guard?0!0&0#6|) |c:up.i@999@F@main@k?1!0&0#19| #b00000000000000000000000000000101)))

(assert 

 (= |c:up.i@999@F@main@k?1!0&0#21| 

  (ite 

   (= #b1 |goto_symex::guard?0!0&0#5|) |c:up.i@999@F@main@k?1!0&0#20| #b00000000000000000000000000000100)))

(assert 

 (= |c:up.i@999@F@main@k?1!0&0#22| 

  (ite 

   (= #b1 |goto_symex::guard?0!0&0#4|) |c:up.i@999@F@main@k?1!0&0#21| #b00000000000000000000000000000011)))

(assert 

 (= |c:up.i@999@F@main@k?1!0&0#23| 

  (ite 

   (= #b1 |goto_symex::guard?0!0&0#3|) |c:up.i@999@F@main@k?1!0&0#22| #b00000000000000000000000000000010)))

(assert 

 (= |c:up.i@999@F@main@k?1!0&0#24| 

  (ite 

   (= #b1 |goto_symex::guard?0!0&0#2|) |c:up.i@999@F@main@k?1!0&0#23| #b00000000000000000000000000000001)))

(assert 

 (= |c:up.i@999@F@main@k?1!0&0#25| 

  (ite 

   (= #b1 |goto_symex::guard?0!0&0#1|) |c:up.i@999@F@main@k?1!0&0#24| #b00000000000000000000000000000000)))

(assert 

 (= 

  (ite $e1 #b1 #b0) |goto_symex::guard?0!0&0#13|))

(assert 

 (= |c:up.i@852@F@__VERIFIER_assert@cond?1!0&0#1| 

  (ite 

   (bvslt #b00000000000000000000000000000000 |c:up.i@999@F@main@k?1!0&0#25|) #b00000000000000000000000000000001 #b00000000000000000000000000000000)))

(assert 

 (= |goto_symex::guard?0!0&0#14| 

  (ite 

   (= #b00000000000000000000000000000000 |c:up.i@852@F@__VERIFIER_assert@cond?1!0&0#1|) #b1 #b0)))

(assert 

 (= |c:up.i@999@F@main@k?1!0&0#26| 

  (bvadd #b11111111111111111111111111111111 |c:up.i@999@F@main@k?1!0&0#25|)))

(assert 

 (= 

  (ite $e2 #b1 #b0) |goto_symex::guard?0!0&0#15|))

(assert 

 (= |c:up.i@852@F@__VERIFIER_assert@cond?2!0&0#1| 

  (ite 

   (bvslt #b00000000000000000000000000000000 |c:up.i@999@F@main@k?1!0&0#26|) #b00000000000000000000000000000001 #b00000000000000000000000000000000)))

(assert 

 (= |goto_symex::guard?0!0&0#16| 

  (ite 

   (= #b00000000000000000000000000000000 |c:up.i@852@F@__VERIFIER_assert@cond?2!0&0#1|) #b1 #b0)))

(assert 

 (= |c:up.i@999@F@main@k?1!0&0#27| 

  (bvadd #b11111111111111111111111111111111 |c:up.i@999@F@main@k?1!0&0#26|)))

(assert 

 (= 

  (ite $e3 #b1 #b0) |goto_symex::guard?0!0&0#17|))

(assert 

 (= |c:up.i@852@F@__VERIFIER_assert@cond?3!0&0#1| 

  (ite 

   (bvslt #b00000000000000000000000000000000 |c:up.i@999@F@main@k?1!0&0#27|) #b00000000000000000000000000000001 #b00000000000000000000000000000000)))

(assert 

 (= |goto_symex::guard?0!0&0#18| 

  (ite 

   (= #b00000000000000000000000000000000 |c:up.i@852@F@__VERIFIER_assert@cond?3!0&0#1|) #b1 #b0)))

(assert 

 (= |c:up.i@999@F@main@k?1!0&0#28| 

  (bvadd #b11111111111111111111111111111111 |c:up.i@999@F@main@k?1!0&0#27|)))

(assert 

 (= 

  (ite $e4 #b1 #b0) |goto_symex::guard?0!0&0#19|))

(assert 

 (= |c:up.i@852@F@__VERIFIER_assert@cond?4!0&0#1| 

  (ite 

   (bvslt #b00000000000000000000000000000000 |c:up.i@999@F@main@k?1!0&0#28|) #b00000000000000000000000000000001 #b00000000000000000000000000000000)))

(assert 

 (= |goto_symex::guard?0!0&0#20| 

  (ite 

   (= #b00000000000000000000000000000000 |c:up.i@852@F@__VERIFIER_assert@cond?4!0&0#1|) #b1 #b0)))

(assert 

 (= |c:up.i@999@F@main@k?1!0&0#29| 

  (bvadd #b11111111111111111111111111111111 |c:up.i@999@F@main@k?1!0&0#28|)))

(assert 

 (= 

  (ite $e5 #b1 #b0) |goto_symex::guard?0!0&0#21|))

(assert 

 (= |c:up.i@852@F@__VERIFIER_assert@cond?5!0&0#1| 

  (ite 

   (bvslt #b00000000000000000000000000000000 |c:up.i@999@F@main@k?1!0&0#29|) #b00000000000000000000000000000001 #b00000000000000000000000000000000)))

(assert 

 (= |goto_symex::guard?0!0&0#22| 

  (ite 

   (= #b00000000000000000000000000000000 |c:up.i@852@F@__VERIFIER_assert@cond?5!0&0#1|) #b1 #b0)))

(assert 

 (= |c:up.i@999@F@main@k?1!0&0#30| 

  (bvadd #b11111111111111111111111111111111 |c:up.i@999@F@main@k?1!0&0#29|)))

(assert 

 (= 

  (ite $e6 #b1 #b0) |goto_symex::guard?0!0&0#23|))

(assert 

 (= |c:up.i@852@F@__VERIFIER_assert@cond?6!0&0#1| 

  (ite 

   (bvslt #b00000000000000000000000000000000 |c:up.i@999@F@main@k?1!0&0#30|) #b00000000000000000000000000000001 #b00000000000000000000000000000000)))

(assert 

 (= |goto_symex::guard?0!0&0#24| 

  (ite 

   (= #b00000000000000000000000000000000 |c:up.i@852@F@__VERIFIER_assert@cond?6!0&0#1|) #b1 #b0)))

(assert 

 (= |c:up.i@999@F@main@k?1!0&0#31| 

  (bvadd #b11111111111111111111111111111111 |c:up.i@999@F@main@k?1!0&0#30|)))

(assert 

 (= 

  (ite $e7 #b1 #b0) |goto_symex::guard?0!0&0#25|))

(assert 

 (= |c:up.i@852@F@__VERIFIER_assert@cond?7!0&0#1| 

  (ite 

   (bvslt #b00000000000000000000000000000000 |c:up.i@999@F@main@k?1!0&0#31|) #b00000000000000000000000000000001 #b00000000000000000000000000000000)))

(assert 

 (= |goto_symex::guard?0!0&0#26| 

  (ite 

   (= #b00000000000000000000000000000000 |c:up.i@852@F@__VERIFIER_assert@cond?7!0&0#1|) #b1 #b0)))

(assert 

 (= |c:up.i@999@F@main@k?1!0&0#32| 

  (bvadd #b11111111111111111111111111111111 |c:up.i@999@F@main@k?1!0&0#31|)))

(assert 

 (= 

  (ite $e8 #b1 #b0) |goto_symex::guard?0!0&0#27|))

(assert 

 (= |c:up.i@852@F@__VERIFIER_assert@cond?8!0&0#1| 

  (ite 

   (bvslt #b00000000000000000000000000000000 |c:up.i@999@F@main@k?1!0&0#32|) #b00000000000000000000000000000001 #b00000000000000000000000000000000)))

(assert 

 (= |goto_symex::guard?0!0&0#28| 

  (ite 

   (= #b00000000000000000000000000000000 |c:up.i@852@F@__VERIFIER_assert@cond?8!0&0#1|) #b1 #b0)))

(assert 

 (= |c:up.i@999@F@main@k?1!0&0#33| 

  (bvadd #b11111111111111111111111111111111 |c:up.i@999@F@main@k?1!0&0#32|)))

(assert 

 (= 

  (ite $e9 #b1 #b0) |goto_symex::guard?0!0&0#29|))

(assert 

 (= |c:up.i@852@F@__VERIFIER_assert@cond?9!0&0#1| 

  (ite 

   (bvslt #b00000000000000000000000000000000 |c:up.i@999@F@main@k?1!0&0#33|) #b00000000000000000000000000000001 #b00000000000000000000000000000000)))

(assert 

 (= |goto_symex::guard?0!0&0#30| 

  (ite 

   (= #b00000000000000000000000000000000 |c:up.i@852@F@__VERIFIER_assert@cond?9!0&0#1|) #b1 #b0)))

(assert 

 (= |c:up.i@999@F@main@k?1!0&0#34| 

  (bvadd #b11111111111111111111111111111111 |c:up.i@999@F@main@k?1!0&0#33|)))

(assert 

 (= 

  (ite $e10 #b1 #b0) |goto_symex::guard?0!0&0#31|))

(assert 

 (= |c:up.i@852@F@__VERIFIER_assert@cond?10!0&0#1| 

  (ite 

   (bvslt #b00000000000000000000000000000000 |c:up.i@999@F@main@k?1!0&0#34|) #b00000000000000000000000000000001 #b00000000000000000000000000000000)))

(assert 

 (= |goto_symex::guard?0!0&0#32| 

  (ite 

   (= #b00000000000000000000000000000000 |c:up.i@852@F@__VERIFIER_assert@cond?10!0&0#1|) #b1 #b0)))

(assert 

 (= |c:up.i@999@F@main@k?1!0&0#35| 

  (bvadd #b11111111111111111111111111111111 |c:up.i@999@F@main@k?1!0&0#34|)))

(assert 

 (= 

  (ite $e11 #b1 #b0) |goto_symex::guard?0!0&0#33|))

(assert 

 (= |c:up.i@852@F@__VERIFIER_assert@cond?11!0&0#1| 

  (ite 

   (bvslt #b00000000000000000000000000000000 |c:up.i@999@F@main@k?1!0&0#35|) #b00000000000000000000000000000001 #b00000000000000000000000000000000)))

(assert 

 (= |goto_symex::guard?0!0&0#34| 

  (ite 

   (= #b00000000000000000000000000000000 |c:up.i@852@F@__VERIFIER_assert@cond?11!0&0#1|) #b1 #b0)))

(assert 

 (= |c:up.i@999@F@main@k?1!0&0#36| 

  (bvadd #b11111111111111111111111111111111 |c:up.i@999@F@main@k?1!0&0#35|)))

(assert 

 (= 

  (ite $e12 #b1 #b0) |goto_symex::guard?0!0&0#35|))

(assert 

 (= |c:up.i@852@F@__VERIFIER_assert@cond?12!0&0#1| 

  (ite 

   (bvslt #b00000000000000000000000000000000 |c:up.i@999@F@main@k?1!0&0#36|) #b00000000000000000000000000000001 #b00000000000000000000000000000000)))

(assert 

 (= |goto_symex::guard?0!0&0#36| 

  (ite 

   (= #b00000000000000000000000000000000 |c:up.i@852@F@__VERIFIER_assert@cond?12!0&0#1|) #b1 #b0)))

(assert (= 

 (bvnot 

  (bvand 

   (bvnot 

    (bvand 

     (bvand $e43 

      (bvnot $e45)) 

     (bvand |execution_statet::guard_exec?0!0| 

      (bvand 

       (bvand $e44 |goto_symex::guard?0!0&0#35|) |goto_symex::guard?0!0&0#36|)))) 

   (bvand 

    (bvnot 

     (bvand $e43 

      (bvand |execution_statet::guard_exec?0!0| $e45))) 

    (bvand 

     (bvnot 

      (bvand $e40 

       (bvand |execution_statet::guard_exec?0!0| $e42))) 

     (bvand 

      (bvnot 

       (bvand $e37 

        (bvand |execution_statet::guard_exec?0!0| $e39))) 

      (bvand 

       (bvnot 

        (bvand $e34 

         (bvand |execution_statet::guard_exec?0!0| $e36))) 

       (bvand 

        (bvnot 

         (bvand $e31 

          (bvand |execution_statet::guard_exec?0!0| $e33))) 

        (bvand 

         (bvnot 

          (bvand $e28 

           (bvand |execution_statet::guard_exec?0!0| $e30))) 

         (bvand 

          (bvnot 

           (bvand $e25 

            (bvand |execution_statet::guard_exec?0!0| $e27))) 

          (bvand 

           (bvnot 

            (bvand $e22 

             (bvand |execution_statet::guard_exec?0!0| $e24))) 

           (bvand 

            (bvnot 

             (bvand $e19 

              (bvand |execution_statet::guard_exec?0!0| $e21))) 

            (bvand 

             (bvnot 

              (bvand 

               (bvnot $e13) 

               (bvand $e15 |execution_statet::guard_exec?0!0|))) 

             (bvnot 

              (bvand $e16 

               (bvand |execution_statet::guard_exec?0!0| $e18))))))))))))))) #b1))

(check-sat)

(exit)
